p cnf 53 182
3 1 0
3 -2 0
-1 2 -3 0
-5 -3 0
-5 4 0
3 -4 5 0
6 -7 -8 0
-6 7 -8 0
6 7 8 0
-6 -7 8 0
5 -8 -9 0
-5 8 -9 0
5 8 9 0
-5 -8 9 0
-10 -9 0
-10 8 0
9 -8 10 0
11 -7 -12 0
-11 7 -12 0
11 7 12 0
-11 -7 12 0
14 -13 0
14 -11 0
13 11 -14 0
-15 -12 0
-15 14 0
12 -14 15 0
16 15 0
16 -11 0
-15 11 -16 0
-1 16 -17 0
1 -16 -17 0
-1 -16 17 0
1 16 17 0
19 18 0
19 2 0
-18 -2 -19 0
-20 18 0
-20 -18 0
-21 20 0
-21 12 0
-20 -12 21 0
21 -13 -22 0
-21 13 -22 0
21 13 22 0
-21 -13 22 0
23 -19 0
23 -22 0
19 22 -23 0
24 -18 0
24 -20 0
18 20 -24 0
25 4 0
25 -24 0
-4 24 -25 0
26 7 0
26 2 0
-7 -2 -26 0
27 -2 0
27 26 0
2 -26 -27 0
-28 27 0
-28 -1 0
-27 1 28 0
29 25 0
29 28 0
-25 -28 -29 0
30 27 0
30 13 0
-27 -13 -30 0
31 29 0
31 -30 0
-29 30 -31 0
-24 8 -32 0
24 -8 -32 0
-24 -8 32 0
24 8 32 0
33 -18 0
33 32 0
18 -32 -33 0
-35 -33 0
-35 34 0
33 -34 35 0
-36 12 0
-36 24 0
-12 -24 36 0
-37 -2 0
-37 4 0
2 -4 37 0
38 -11 0
38 -37 0
11 37 -38 0
-39 -36 0
-39 38 0
36 -38 39 0
-40 -39 0
-40 26 0
39 -26 40 0
-35 40 -41 0
35 -40 -41 0
-35 -40 41 0
35 40 41 0
31 41 -42 0
-31 -41 -42 0
31 -41 42 0
-31 41 42 0
43 23 0
43 -42 0
-23 42 -43 0
-44 -17 0
-44 -43 0
17 43 44 0
-10 -44 -45 0
10 44 -45 0
-10 44 45 0
10 -44 45 0
12 -15 -46 0
-12 15 -46 0
12 15 46 0
-12 -15 46 0
48 25 0
48 -47 0
-25 47 -48 0
-49 -21 0
-49 27 0
21 -27 49 0
-49 36 -50 0
49 -36 -50 0
-49 -36 50 0
49 36 50 0
51 48 0
51 -50 0
-48 50 -51 0
52 46 0
52 -51 0
-46 51 -52 0
53 45 0
53 52 0
-45 -52 -53 0
-27 35 0
37 39 -51 31 -14 0
-52 53 -48 0
-11 -32 -31 -21 45 -42 0
32 -18 0
31 8 -44 0
-22 26 -39 40 8 -49 0
-20 -10 50 0
33 -44 0
46 -48 0
45 -47 34 29 24 49 0
14 -47 -25 52 0
-5 -10 3 -47 0
52 -49 0
-29 8 47 2 0
11 16 44 0
-41 -6 0
32 -16 -22 0
25 -42 18 -4 -28 0
-10 -27 -28 0
-27 -3 0
3 -19 -21 0
11 -38 7 0
46 -21 -29 -6 -22 0
-38 -9 -25 0
-13 -19 -49 -23 -33 0
-6 -45 -26 0
-41 -42 0
-43 -29 -20 34 0
-27 -17 0
53 -51 -20 27 -17 44 0
-13 -23 33 8 4 0
2 -25 -20 0
40 42 26 10 0
6 29 37 45 0
-1 14 37 -49 -32 20 0
18 -37 -22 46 -16 0
13 18 53 0
-43 -35 -36 0
16 -17 -22 42 51 0
43 -4 11 22 0
-10 -5 -40 -1 31 33 0
53 0
